db/data/284681853530311341613986280622416120116.z3.out
sat
-------------------
1.060961623
